p cnf 196 662
c p weight -77 1 0
c p weight 77 -1 0
c p weight 81 6.12323399573676603586882014729198302312846062338790031898128063403419218957424163818359375E-17 0
c p weight -81 1 0
c p weight 82 1 0
c p weight -82 1 0
c p weight -79 1 0
c p weight 79 -1 0
c p weight -83 1 0
c p weight 83 -1 0
c p weight -85 1 0
c p weight 85 -1 0
c p weight -88 1 0
c p weight 88 -1 0
c p weight -91 1 0
c p weight 91 -1 0
c p weight -94 1 0
c p weight 94 -1 0
c p weight -97 1 0
c p weight 97 -1 0
c p weight -100 1 0
c p weight 100 -1 0
c p weight -103 1 0
c p weight 103 -1 0
c p weight -106 1 0
c p weight 106 -1 0
c p weight -109 1 0
c p weight 109 -1 0
c p weight -112 1 0
c p weight 112 -1 0
c p weight -115 1 0
c p weight 115 -1 0
c p weight -118 1 0
c p weight 118 -1 0
c p weight -121 1 0
c p weight 121 -1 0
c p weight -124 1 0
c p weight 124 -1 0
c p weight -127 1 0
c p weight 127 -1 0
c p weight -130 1 0
c p weight 130 -1 0
c p weight -133 1 0
c p weight 133 -1 0
c p weight -136 1 0
c p weight 136 -1 0
c p weight -139 1 0
c p weight 139 -1 0
c p weight -142 1 0
c p weight 142 -1 0
c p weight -145 1 0
c p weight 145 -1 0
c p weight -148 1 0
c p weight 148 -1 0
c p weight -151 1 0
c p weight 151 -1 0
c p weight -154 1 0
c p weight 154 -1 0
c p weight -157 1 0
c p weight 157 -1 0
c p weight -160 1 0
c p weight 160 -1 0
c p weight -163 1 0
c p weight 163 -1 0
c p weight -166 1 0
c p weight 166 -1 0
c p weight -169 1 0
c p weight 169 -1 0
c p weight -172 1 0
c p weight 172 -1 0
c p weight -175 1 0
c p weight 175 -1 0
c p weight -178 1 0
c p weight 178 -1 0
c p weight -181 1 0
c p weight 181 -1 0
c p weight -184 1 0
c p weight 184 -1 0
c p weight -187 1 0
c p weight 187 -1 0
c p weight -190 1 0
c p weight 190 -1 0
c p weight -193 1 0
c p weight 193 -1 0
c p weight 196 0.5 0
c p weight -196 1 0
196 0
-75 0
-73 0
-71 0
-69 0
-67 0
-65 0
-63 0
-61 0
-59 0
-57 0
-55 0
-53 0
-51 0
-49 0
-47 0
-45 0
-43 0
-41 0
-39 0
-37 0
-35 0
-33 0
-31 0
-29 0
-27 0
-25 0
-23 0
-21 0
-19 0
-17 0
-15 0
-13 0
-11 0
-9 0
-7 0
-5 0
-3 0
-1 0
-77 75 0
-77 76 0
77 -75 -76 0
78 75 -76 0
78 -75 76 0
-78 75 76 0
-78 -75 -76 0
-79 80 0
-79 78 0
-79 -75 0
79 -80 75 -78 0
80 -75 78 0
-80 75 78 0
-81 78 0
80 -81 -75 0
-80 -81 75 0
80 81 75 -78 0
-80 81 -75 -78 0
-82 78 0
80 -82 75 0
-80 -82 -75 0
80 82 -75 -78 0
-80 82 75 -78 0
-83 80 0
-83 78 0
83 -80 -78 0
84 80 -78 0
84 -80 78 0
-84 80 78 0
-84 -80 -78 0
-85 80 0
-85 74 0
-85 73 -84 0
-85 -73 84 0
85 -80 73 84 -74 0
85 -80 -73 -84 -74 0
87 80 -73 0
87 -80 73 0
-87 80 73 0
-87 -80 -73 0
86 84 -74 0
86 -84 74 0
-86 84 74 0
-86 -84 -74 0
-88 87 0
-88 72 0
-88 71 -74 0
-88 -71 74 0
88 -87 71 74 -72 0
88 -87 -71 -74 -72 0
90 87 -71 0
90 -87 71 0
-90 87 71 0
-90 -87 -71 0
89 74 -72 0
89 -74 72 0
-89 74 72 0
-89 -74 -72 0
-91 90 0
-91 70 0
-91 69 -72 0
-91 -69 72 0
91 -90 69 72 -70 0
91 -90 -69 -72 -70 0
93 90 -69 0
93 -90 69 0
-93 90 69 0
-93 -90 -69 0
92 72 -70 0
92 -72 70 0
-92 72 70 0
-92 -72 -70 0
-94 93 0
-94 68 0
-94 67 -70 0
-94 -67 70 0
94 -93 67 70 -68 0
94 -93 -67 -70 -68 0
96 93 -67 0
96 -93 67 0
-96 93 67 0
-96 -93 -67 0
95 70 -68 0
95 -70 68 0
-95 70 68 0
-95 -70 -68 0
-97 96 0
-97 66 0
-97 65 -68 0
-97 -65 68 0
97 -96 65 68 -66 0
97 -96 -65 -68 -66 0
99 96 -65 0
99 -96 65 0
-99 96 65 0
-99 -96 -65 0
98 68 -66 0
98 -68 66 0
-98 68 66 0
-98 -68 -66 0
-100 99 0
-100 64 0
-100 63 -66 0
-100 -63 66 0
100 -99 63 66 -64 0
100 -99 -63 -66 -64 0
102 99 -63 0
102 -99 63 0
-102 99 63 0
-102 -99 -63 0
101 66 -64 0
101 -66 64 0
-101 66 64 0
-101 -66 -64 0
-103 102 0
-103 62 0
-103 61 -64 0
-103 -61 64 0
103 -102 61 64 -62 0
103 -102 -61 -64 -62 0
105 102 -61 0
105 -102 61 0
-105 102 61 0
-105 -102 -61 0
104 64 -62 0
104 -64 62 0
-104 64 62 0
-104 -64 -62 0
-106 105 0
-106 60 0
-106 59 -62 0
-106 -59 62 0
106 -105 59 62 -60 0
106 -105 -59 -62 -60 0
108 105 -59 0
108 -105 59 0
-108 105 59 0
-108 -105 -59 0
107 62 -60 0
107 -62 60 0
-107 62 60 0
-107 -62 -60 0
-109 108 0
-109 58 0
-109 57 -60 0
-109 -57 60 0
109 -108 57 60 -58 0
109 -108 -57 -60 -58 0
111 108 -57 0
111 -108 57 0
-111 108 57 0
-111 -108 -57 0
110 60 -58 0
110 -60 58 0
-110 60 58 0
-110 -60 -58 0
-112 111 0
-112 56 0
-112 55 -58 0
-112 -55 58 0
112 -111 55 58 -56 0
112 -111 -55 -58 -56 0
114 111 -55 0
114 -111 55 0
-114 111 55 0
-114 -111 -55 0
113 58 -56 0
113 -58 56 0
-113 58 56 0
-113 -58 -56 0
-115 114 0
-115 54 0
-115 53 -56 0
-115 -53 56 0
115 -114 53 56 -54 0
115 -114 -53 -56 -54 0
117 114 -53 0
117 -114 53 0
-117 114 53 0
-117 -114 -53 0
116 56 -54 0
116 -56 54 0
-116 56 54 0
-116 -56 -54 0
-118 117 0
-118 52 0
-118 51 -54 0
-118 -51 54 0
118 -117 51 54 -52 0
118 -117 -51 -54 -52 0
120 117 -51 0
120 -117 51 0
-120 117 51 0
-120 -117 -51 0
119 54 -52 0
119 -54 52 0
-119 54 52 0
-119 -54 -52 0
-121 120 0
-121 50 0
-121 49 -52 0
-121 -49 52 0
121 -120 49 52 -50 0
121 -120 -49 -52 -50 0
123 120 -49 0
123 -120 49 0
-123 120 49 0
-123 -120 -49 0
122 52 -50 0
122 -52 50 0
-122 52 50 0
-122 -52 -50 0
-124 123 0
-124 48 0
-124 47 -50 0
-124 -47 50 0
124 -123 47 50 -48 0
124 -123 -47 -50 -48 0
126 123 -47 0
126 -123 47 0
-126 123 47 0
-126 -123 -47 0
125 50 -48 0
125 -50 48 0
-125 50 48 0
-125 -50 -48 0
-127 126 0
-127 46 0
-127 45 -48 0
-127 -45 48 0
127 -126 45 48 -46 0
127 -126 -45 -48 -46 0
129 126 -45 0
129 -126 45 0
-129 126 45 0
-129 -126 -45 0
128 48 -46 0
128 -48 46 0
-128 48 46 0
-128 -48 -46 0
-130 129 0
-130 44 0
-130 43 -46 0
-130 -43 46 0
130 -129 43 46 -44 0
130 -129 -43 -46 -44 0
132 129 -43 0
132 -129 43 0
-132 129 43 0
-132 -129 -43 0
131 46 -44 0
131 -46 44 0
-131 46 44 0
-131 -46 -44 0
-133 132 0
-133 42 0
-133 41 -44 0
-133 -41 44 0
133 -132 41 44 -42 0
133 -132 -41 -44 -42 0
135 132 -41 0
135 -132 41 0
-135 132 41 0
-135 -132 -41 0
134 44 -42 0
134 -44 42 0
-134 44 42 0
-134 -44 -42 0
-136 135 0
-136 40 0
-136 39 -42 0
-136 -39 42 0
136 -135 39 42 -40 0
136 -135 -39 -42 -40 0
138 135 -39 0
138 -135 39 0
-138 135 39 0
-138 -135 -39 0
137 42 -40 0
137 -42 40 0
-137 42 40 0
-137 -42 -40 0
-139 138 0
-139 38 0
-139 37 -40 0
-139 -37 40 0
139 -138 37 40 -38 0
139 -138 -37 -40 -38 0
141 138 -37 0
141 -138 37 0
-141 138 37 0
-141 -138 -37 0
140 40 -38 0
140 -40 38 0
-140 40 38 0
-140 -40 -38 0
-142 141 0
-142 36 0
-142 35 -38 0
-142 -35 38 0
142 -141 35 38 -36 0
142 -141 -35 -38 -36 0
144 141 -35 0
144 -141 35 0
-144 141 35 0
-144 -141 -35 0
143 38 -36 0
143 -38 36 0
-143 38 36 0
-143 -38 -36 0
-145 144 0
-145 34 0
-145 33 -36 0
-145 -33 36 0
145 -144 33 36 -34 0
145 -144 -33 -36 -34 0
147 144 -33 0
147 -144 33 0
-147 144 33 0
-147 -144 -33 0
146 36 -34 0
146 -36 34 0
-146 36 34 0
-146 -36 -34 0
-148 147 0
-148 32 0
-148 31 -34 0
-148 -31 34 0
148 -147 31 34 -32 0
148 -147 -31 -34 -32 0
150 147 -31 0
150 -147 31 0
-150 147 31 0
-150 -147 -31 0
149 34 -32 0
149 -34 32 0
-149 34 32 0
-149 -34 -32 0
-151 150 0
-151 30 0
-151 29 -32 0
-151 -29 32 0
151 -150 29 32 -30 0
151 -150 -29 -32 -30 0
153 150 -29 0
153 -150 29 0
-153 150 29 0
-153 -150 -29 0
152 32 -30 0
152 -32 30 0
-152 32 30 0
-152 -32 -30 0
-154 153 0
-154 28 0
-154 27 -30 0
-154 -27 30 0
154 -153 27 30 -28 0
154 -153 -27 -30 -28 0
156 153 -27 0
156 -153 27 0
-156 153 27 0
-156 -153 -27 0
155 30 -28 0
155 -30 28 0
-155 30 28 0
-155 -30 -28 0
-157 156 0
-157 26 0
-157 25 -28 0
-157 -25 28 0
157 -156 25 28 -26 0
157 -156 -25 -28 -26 0
159 156 -25 0
159 -156 25 0
-159 156 25 0
-159 -156 -25 0
158 28 -26 0
158 -28 26 0
-158 28 26 0
-158 -28 -26 0
-160 159 0
-160 24 0
-160 23 -26 0
-160 -23 26 0
160 -159 23 26 -24 0
160 -159 -23 -26 -24 0
162 159 -23 0
162 -159 23 0
-162 159 23 0
-162 -159 -23 0
161 26 -24 0
161 -26 24 0
-161 26 24 0
-161 -26 -24 0
-163 162 0
-163 22 0
-163 21 -24 0
-163 -21 24 0
163 -162 21 24 -22 0
163 -162 -21 -24 -22 0
165 162 -21 0
165 -162 21 0
-165 162 21 0
-165 -162 -21 0
164 24 -22 0
164 -24 22 0
-164 24 22 0
-164 -24 -22 0
-166 165 0
-166 20 0
-166 19 -22 0
-166 -19 22 0
166 -165 19 22 -20 0
166 -165 -19 -22 -20 0
168 165 -19 0
168 -165 19 0
-168 165 19 0
-168 -165 -19 0
167 22 -20 0
167 -22 20 0
-167 22 20 0
-167 -22 -20 0
-169 168 0
-169 18 0
-169 17 -20 0
-169 -17 20 0
169 -168 17 20 -18 0
169 -168 -17 -20 -18 0
171 168 -17 0
171 -168 17 0
-171 168 17 0
-171 -168 -17 0
170 20 -18 0
170 -20 18 0
-170 20 18 0
-170 -20 -18 0
-172 171 0
-172 16 0
-172 15 -18 0
-172 -15 18 0
172 -171 15 18 -16 0
172 -171 -15 -18 -16 0
174 171 -15 0
174 -171 15 0
-174 171 15 0
-174 -171 -15 0
173 18 -16 0
173 -18 16 0
-173 18 16 0
-173 -18 -16 0
-175 174 0
-175 14 0
-175 13 -16 0
-175 -13 16 0
175 -174 13 16 -14 0
175 -174 -13 -16 -14 0
177 174 -13 0
177 -174 13 0
-177 174 13 0
-177 -174 -13 0
176 16 -14 0
176 -16 14 0
-176 16 14 0
-176 -16 -14 0
-178 177 0
-178 12 0
-178 11 -14 0
-178 -11 14 0
178 -177 11 14 -12 0
178 -177 -11 -14 -12 0
180 177 -11 0
180 -177 11 0
-180 177 11 0
-180 -177 -11 0
179 14 -12 0
179 -14 12 0
-179 14 12 0
-179 -14 -12 0
-181 180 0
-181 10 0
-181 9 -12 0
-181 -9 12 0
181 -180 9 12 -10 0
181 -180 -9 -12 -10 0
183 180 -9 0
183 -180 9 0
-183 180 9 0
-183 -180 -9 0
182 12 -10 0
182 -12 10 0
-182 12 10 0
-182 -12 -10 0
-184 183 0
-184 8 0
-184 7 -10 0
-184 -7 10 0
184 -183 7 10 -8 0
184 -183 -7 -10 -8 0
186 183 -7 0
186 -183 7 0
-186 183 7 0
-186 -183 -7 0
185 10 -8 0
185 -10 8 0
-185 10 8 0
-185 -10 -8 0
-187 186 0
-187 6 0
-187 5 -8 0
-187 -5 8 0
187 -186 5 8 -6 0
187 -186 -5 -8 -6 0
189 186 -5 0
189 -186 5 0
-189 186 5 0
-189 -186 -5 0
188 8 -6 0
188 -8 6 0
-188 8 6 0
-188 -8 -6 0
-190 189 0
-190 4 0
-190 3 -6 0
-190 -3 6 0
190 -189 3 6 -4 0
190 -189 -3 -6 -4 0
192 189 -3 0
192 -189 3 0
-192 189 3 0
-192 -189 -3 0
191 6 -4 0
191 -6 4 0
-191 6 4 0
-191 -6 -4 0
-193 192 0
-193 2 0
-193 1 -4 0
-193 -1 4 0
193 -192 1 4 -2 0
193 -192 -1 -4 -2 0
195 192 -1 0
195 -192 1 0
-195 192 1 0
-195 -192 -1 0
194 4 -2 0
194 -4 2 0
-194 4 2 0
-194 -4 -2 0
-195 0
-192 0
-194 0
-189 0
-191 0
-186 0
-188 0
-183 0
-185 0
-180 0
-182 0
-177 0
-179 0
-174 0
-176 0
-171 0
-173 0
-168 0
-170 0
-165 0
-167 0
-162 0
-164 0
-159 0
-161 0
-156 0
-158 0
-153 0
-155 0
-150 0
-152 0
-147 0
-149 0
-144 0
-146 0
-141 0
-143 0
-138 0
-140 0
-135 0
-137 0
-132 0
-134 0
-129 0
-131 0
-126 0
-128 0
-123 0
-125 0
-120 0
-122 0
-117 0
-119 0
-114 0
-116 0
-111 0
-113 0
-108 0
-110 0
-105 0
-107 0
-102 0
-104 0
-99 0
-101 0
-96 0
-98 0
-93 0
-95 0
-90 0
-92 0
-87 0
-89 0
-80 0
-86 0
